(set-option :print-success false)
(set-logic QF_UF)
(declare-sort x84 0)
(declare-sort x32 0)
(declare-fun x59 () x32)
(declare-fun x20 (x32 x32) x32)
(declare-fun x151 (x32 x32) x32)
(declare-fun x15 () x32)
(declare-fun x83 () x32)
(declare-fun x80 () x32)
(declare-fun x79 () x32)
(assert (or (or (and (and (not (= x59 (x151 (x151 x59 x59) x59))) (and (not (= (x151 (x151 x15 x59) x59) x15)) (and (not (= x79 (x151 (x151 x79 x59) x59))) (not (= x80 (x151 (x151 x80 x59) x59)))))) (not (= (x151 (x151 x83 x59) x59) x83))) (or (and (not (= x83 (x151 (x151 x83 x15) x15))) (and (not (= (x151 (x151 x59 x15) x15) x59)) (and (not (= x15 (x151 (x151 x15 x15) x15))) (and (not (= x80 (x151 (x151 x80 x15) x15))) (not (= (x151 (x151 x79 x15) x15) x79)))))) (or (and (and (and (not (= x15 (x151 (x151 x15 x79) x79))) (and (not (= x79 (x151 (x151 x79 x79) x79))) (not (= (x151 (x151 x80 x79) x79) x80)))) (not (= (x151 (x151 x59 x79) x79) x59))) (not (= (x151 (x151 x83 x79) x79) x83))) (and (and (and (and (not (= x80 (x151 (x151 x80 x80) x80))) (not (= x79 (x151 (x151 x79 x80) x80)))) (not (= (x151 (x151 x15 x80) x80) x15))) (not (= (x151 (x151 x59 x80) x80) x59))) (not (= (x151 (x151 x83 x80) x80) x83)))))) (and (and (and (and (not (= (x151 (x151 x80 x83) x83) x80)) (not (= x79 (x151 (x151 x79 x83) x83)))) (not (= (x151 (x151 x15 x83) x83) x15))) (not (= x59 (x151 (x151 x59 x83) x83)))) (not (= x83 (x151 (x151 x83 x83) x83))))))
(assert (or (or (or (or (or (not (= (x151 x15 (x151 x15 x59)) x59)) (or (not (= x15 (x151 x15 (x151 x15 x15)))) (or (not (= (x151 x15 (x151 x15 x80)) x80)) (not (= x79 (x151 x15 (x151 x15 x79))))))) (not (= (x151 x15 (x151 x15 x83)) x83))) (or (or (or (or (or (not (= x80 (x151 x79 (x151 x79 x80)))) (not (= (x151 x79 (x151 x79 x79)) x79))) (not (= (x151 x79 (x151 x79 x15)) x15))) (not (= (x151 x79 (x151 x79 x59)) x59))) (not (= x83 (x151 x79 (x151 x79 x83))))) (or (not (= x83 (x151 x80 (x151 x80 x83)))) (or (not (= (x151 x80 (x151 x80 x59)) x59)) (or (not (= (x151 x80 (x151 x80 x15)) x15)) (or (not (= (x151 x80 (x151 x80 x79)) x79)) (not (= x80 (x151 x80 (x151 x80 x80)))))))))) (or (or (or (or (not (= (x151 x59 (x151 x59 x79)) x79)) (not (= x80 (x151 x59 (x151 x59 x80))))) (not (= (x151 x59 (x151 x59 x15)) x15))) (not (= x59 (x151 x59 (x151 x59 x59))))) (not (= (x151 x59 (x151 x59 x83)) x83)))) (or (or (not (= (x151 x83 (x151 x83 x59)) x59)) (or (not (= x15 (x151 x83 (x151 x83 x15)))) (or (not (= x79 (x151 x83 (x151 x83 x79)))) (not (= x80 (x151 x83 (x151 x83 x80))))))) (not (= (x151 x83 (x151 x83 x83)) x83)))))
(assert (let ((x143 (x151 x80 x80)) (x92 (x151 x59 x80)) (x103 (x151 x59 x15)) (x11 (x151 x79 x80)) (x109 (x151 x79 x79)) (x64 (x151 x83 x59)) (x5 (x151 x15 x79)) (x48 (x151 x80 x59)) (x122 (x151 x15 x59)) (x36 (x151 x83 x79)) (x119 (x151 x15 x83)) (x61 (x151 x80 x83)) (x123 (x151 x83 x15)) (x13 (x151 x15 x15)) (x148 (x151 x83 x83)) (x30 (x151 x59 x83)) (x85 (x151 x79 x15)) (x52 (x151 x80 x15)) (x110 (x151 x59 x59)) (x159 (x151 x15 x80)) (x2 (x151 x79 x59)) (x88 (x151 x80 x79)) (x40 (x151 x83 x80)) (x12 (x151 x79 x83)) (x66 (x151 x59 x79))) (let ((x60 (not (= x79 x5))) (x55 (not (= x79 x48))) (x3 (not (= x36 x83))) (x146 (not (= x80 x52))) (x62 (not (= x88 x80))) (x7 (not (= x15 x123))) (x108 (not (= x88 x79))) (x81 (not (= x79 x64))) (x135 (not (= x103 x79))) (x102 (not (= x2 x59))) (x38 (not (= x143 x80))) (x49 (not (= x15 x148))) (x99 (not (= x123 x59))) (x27 (not (= x80 x12))) (x37 (not (= x123 x79))) (x139 (not (= x122 x80))) (x14 (not (= x80 x66))) (x1 (not (= x119 x79))) (x93 (not (= x52 x15))) (x39 (not (= x80 x109))) (x90 (not (= x15 x12))) (x71 (not (= x15 x103))) (x115 (not (= x85 x59))) (x24 (not (= x143 x59))) (x77 (not (= x64 x83))) (x75 (not (= x92 x79))) (x57 (not (= x80 x110))) (x76 (not (= x5 x15))) (x114 (not (= x13 x15))) (x34 (not (= x103 x59))) (x17 (not (= x109 x83))) (x128 (not (= x52 x79))) (x94 (not (= x109 x79))) (x69 (not (= x79 x36))) (x152 (not (= x92 x15))) (x72 (not (= x15 x61))) (x16 (not (= x15 x119))) (x9 (not (= x80 x103))) (x158 (not (= x109 x15))) (x41 (not (= x143 x83))) (x91 (not (= x88 x15))) (x117 (not (= x109 x59))) (x97 (not (= x79 x2))) (x113 (not (= x2 x15))) (x51 (not (= x59 x40))) (x87 (not (= x66 x83))) (x54 (not (= x13 x79))) (x98 (not (= x59 x61))) (x100 (not (= x40 x80))) (x73 (not (= x148 x80))) (x104 (not (= x15 x11))) (x23 (not (= x30 x59))) (x58 (not (= x12 x83))) (x18 (not (= x52 x59))) (x155 (not (= x79 x148))) (x19 (not (= x30 x15))) (x8 (not (= x85 x83))) (x6 (not (= x15 x110))) (x142 (not (= x92 x80))) (x116 (not (= x15 x159))) (x144 (not (= x80 x36))) (x43 (not (= x80 x48))) (x35 (not (= x59 x159))) (x105 (not (= x83 x88))) (x82 (not (= x15 x36))) (x150 (not (= x159 x80))) (x138 (not (= x79 x40))) (x96 (not (= x2 x83))) (x70 (not (= x79 x110))) (x145 (not (= x15 x143))) (x42 (not (= x83 x61))) (x21 (not (= x59 x13))) (x112 (not (= x83 x52))) (x10 (not (= x159 x83))) (x134 (not (= x92 x83))) (x4 (not (= x83 x148))) (x89 (not (= x83 x11))) (x127 (not (= x59 x148))) (x65 (not (= x85 x79))) (x26 (not (= x59 x64))) (x29 (not (= x66 x59))) (x153 (not (= x59 x122))) (x132 (not (= x40 x83))) (x154 (not (= x64 x15))) (x25 (not (= x83 x5))) (x107 (not (= x36 x59))) (x141 (not (= x80 x119))) (x121 (not (= x48 x59))) (x140 (not (= x119 x83))) (x137 (not (= x80 x13))) (x101 (not (= x59 x11))) (x149 (not (= x80 x61))) (x44 (not (= x79 x12))) (x63 (not (= x85 x15))) (x147 (not (= x15 x40))) (x130 (not (= x85 x80))) (x118 (not (= x2 x80))) (x68 (not (= x110 x59))) (x120 (not (= x83 x123))) (x156 (not (= x122 x79))) (x133 (not (= x64 x80))) (x136 (not (= x15 x122))) (x31 (not (= x5 x80))) (x126 (not (= x15 x66))) (x22 (not (= x103 x83))) (x106 (not (= x12 x59))) (x78 (not (= x79 x66))) (x125 (not (= x79 x30))) (x157 (not (= x59 x92))) (x74 (not (= x83 x13))) (x131 (not (= x80 x123))) (x53 (not (= x48 x83))) (x95 (not (= x79 x61))) (x50 (not (= x80 x11))) (x56 (not (= x48 x15))) (x124 (not (= x79 x11))) (x86 (not (= x119 x59))) (x67 (not (= x80 x30))) (x47 (not (= x79 x159))) (x46 (not (= x79 x143))) (x28 (not (= x83 x110))) (x45 (not (= x30 x83))) (x111 (not (= x59 x5))) (x33 (not (= x122 x83))) (x129 (not (= x59 x88)))) (or (and (and (and (or x77 x45) (and (or x120 x140) (and (or x3 x58) (or x42 x132)))) (or x4 x4)) (and (and (and (and (or x33 x22) (and (and (or x25 x8) (or x10 x112)) (or x74 x74))) (or x120 x140)) (and (and (or x3 x58) (and (and (and (or x17 x17) (or x89 x105)) (or x25 x8)) (or x87 x96))) (and (or x42 x132) (and (or x53 x134) (and (and (or x105 x89) (or x41 x41)) (or x112 x10)))))) (and (or x77 x45) (and (or x28 x28) (and (and (or x53 x134) (or x96 x87)) (or x22 x33)))))) (or (or (or (and (and (and (or x125 x81) (and (and (or x135 x156) (and (or x75 x55) (or x97 x78))) (or x70 x70))) (and (and (and (or x44 x69) (and (and (and (or x94 x94) (or x108 x124)) (or x60 x65)) (or x78 x97))) (and (and (and (or x47 x128) (and (or x46 x46) (or x124 x108))) (or x55 x75)) (or x138 x95))) (and (and (or x135 x156) (and (and (or x47 x128) (or x60 x65)) (or x54 x54))) (or x1 x37)))) (and (or x155 x155) (and (and (or x1 x37) (and (or x69 x44) (or x138 x95))) (or x125 x81)))) (and (and (and (and (and (and (or x14 x118) (and (and (or x39 x39) (or x62 x50)) (or x130 x31))) (or x27 x144)) (and (and (and (and (or x38 x38) (or x50 x62)) (or x150 x146)) (or x43 x142)) (or x100 x149))) (and (or x131 x141) (and (and (or x137 x137) (and (or x31 x130) (or x150 x146))) (or x9 x139)))) (and (or x67 x133) (and (and (or x9 x139) (and (or x43 x142) (or x14 x118))) (or x57 x57)))) (and (or x73 x73) (and (and (or x131 x141) (and (or x100 x149) (or x144 x27))) (or x67 x133))))) (and (and (and (or x154 x19) (and (or x16 x7) (and (or x90 x82) (or x147 x72)))) (or x49 x49)) (and (and (and (or x16 x7) (and (and (and (or x93 x116) (or x76 x63)) (or x114 x114)) (or x136 x71))) (and (and (or x82 x90) (and (and (or x63 x76) (and (or x91 x104) (or x158 x158))) (or x113 x126))) (and (or x72 x147) (and (or x56 x152) (and (and (or x145 x145) (or x91 x104)) (or x93 x116)))))) (and (or x154 x19) (and (and (and (or x113 x126) (or x56 x152)) (or x71 x136)) (or x6 x6)))))) (and (and (and (or x26 x23) (and (or x68 x68) (and (or x153 x34) (and (or x121 x157) (or x102 x29))))) (and (and (and (and (or x157 x121) (and (and (or x129 x101) (or x24 x24)) (or x18 x35))) (or x98 x51)) (and (and (or x29 x102) (and (and (or x101 x129) (or x117 x117)) (or x111 x115))) (or x107 x106))) (and (or x99 x86) (and (or x34 x153) (and (or x21 x21) (and (or x115 x111) (or x35 x18))))))) (and (and (and (or x86 x99) (and (or x98 x51) (or x106 x107))) (or x23 x26)) (or x127 x127))))))))
(assert (not (and (and (= x80 (x151 x83 x59)) (and (= (x151 x83 x15) x15) (and (= (x151 x83 x80) x59) (and (and (= x83 (x151 x59 x83)) (and (and (and (and (= x80 (x151 x59 x79)) (and (and (= (x151 x15 x59) x59) (and (and (= x79 (x151 x15 x80)) (and (= x15 (x151 x15 x79)) (and (and (and (and (= x83 (x151 x80 x80)) (and (and (and (= (x151 x79 x59) x83) (and (= (x151 x79 x15) x79) (and (= x80 (x151 x79 x80)) (= x59 (x151 x79 x79))))) (= (x151 x79 x83) x15)) (= x79 (x151 x80 x79)))) (= x80 (x151 x80 x15))) (= (x151 x80 x59) x15)) (= x59 (x151 x80 x83))))) (= (x151 x15 x15) x83))) (= (x151 x15 x83) x80))) (= x15 (x151 x59 x80))) (= x59 (x151 x59 x15))) (= (x151 x59 x59) x79))) (= (x151 x83 x79) x83))))) (= (x151 x83 x83) x79))))
(assert (let ((x1 (x151 x80 x83)) (x39 (x151 x83 x80)) (x93 (x151 x83 x59)) (x106 (x151 x83 x83)) (x60 (x151 x79 x59)) (x65 (x151 x79 x83)) (x61 (x151 x15 x15)) (x54 (x151 x15 x79)) (x124 (x151 x79 x80)) (x95 (x151 x80 x15)) (x108 (x151 x79 x79)) (x37 (x151 x80 x59)) (x46 (x151 x79 x15)) (x78 (x151 x59 x79)) (x91 (x151 x59 x59)) (x104 (x151 x59 x83)) (x13 (x151 x59 x15)) (x137 (x151 x83 x15)) (x31 (x151 x15 x83)) (x128 (x151 x80 x79)) (x97 (x151 x83 x79)) (x109 (x151 x59 x80)) (x138 (x151 x80 x80)) (x40 (x151 x15 x59)) (x155 (x151 x15 x80))) (let ((x66 (= x59 x138)) (x101 (= x83 x40)) (x139 (= x59 x61)) (x36 (= x83 x124)) (x70 (= x124 x79)) (x3 (= x97 x83)) (x41 (= x1 x15)) (x52 (= x79 x95)) (x122 (= x54 x15)) (x100 (= x109 x79)) (x53 (= x1 x59)) (x26 (= x80 x106)) (x157 (= x79 x104)) (x25 (= x31 x15)) (x148 (= x78 x80)) (x9 (= x59 x95)) (x7 (= x59 x40)) (x87 (= x59 x137)) (x24 (= x83 x91)) (x8 (= x15 x104)) (x116 (= x80 x91)) (x146 (= x80 x61)) (x129 (= x83 x37)) (x22 (= x59 x31)) (x150 (= x95 x80)) (x63 (= x40 x80)) (x107 (= x80 x93)) (x98 (= x80 x1)) (x56 (= x37 x15)) (x125 (= x138 x80)) (x131 (= x60 x79)) (x102 (= x31 x79)) (x85 (= x15 x138)) (x72 (= x37 x59)) (x82 (= x109 x59)) (x134 (= x65 x59)) (x57 (= x155 x83)) (x149 (= x79 x13)) (x38 (= x46 x79)) (x68 (= x80 x137)) (x133 (= x40 x79)) (x86 (= x104 x80)) (x94 (= x79 x108)) (x153 (= x39 x80)) (x45 (= x104 x83)) (x51 (= x65 x80)) (x121 (= x79 x106)) (x50 (= x79 x54)) (x142 (= x59 x155)) (x58 (= x39 x83)) (x64 (= x95 x83)) (x99 (= x80 x31)) (x119 (= x15 x46)) (x144 (= x61 x83)) (x113 (= x15 x13)) (x136 (= x91 x15)) (x16 (= x59 x91)) (x156 (= x128 x79)) (x147 (= x59 x60)) (x71 (= x40 x15)) (x69 (= x138 x79)) (x35 (= x137 x79)) (x123 (= x95 x15)) (x34 (= x97 x80)) (x143 (= x155 x79)) (x88 (= x124 x15)) (x67 (= x79 x91)) (x126 (= x109 x15)) (x75 (= x108 x15)) (x140 (= x1 x83)) (x30 (= x46 x83)) (x28 (= x59 x106)) (x55 (= x59 x108)) (x152 (= x60 x15)) (x111 (= x79 x97)) (x6 (= x78 x59)) (x127 (= x15 x39)) (x18 (= x93 x79)) (x81 (= x80 x124)) (x141 (= x79 x37)) (x73 (= x109 x80)) (x90 (= x59 x13)) (x11 (= x15 x128)) (x114 (= x15 x78)) (x74 (= x39 x59)) (x49 (= x13 x83)) (x135 (= x83 x108)) (x115 (= x79 x39)) (x154 (= x83 x78)) (x105 (= x93 x15)) (x77 (= x83 x31)) (x112 (= x59 x97)) (x92 (= x80 x155)) (x89 (= x15 x65)) (x48 (= x54 x80)) (x159 (= x61 x79)) (x120 (= x65 x83)) (x130 (= x46 x80)) (x118 (= x54 x59)) (x47 (= x80 x108)) (x29 (= x1 x79)) (x43 (= x46 x59)) (x12 (= x83 x128)) (x21 (= x79 x65)) (x14 (= x61 x15)) (x19 (= x83 x109)) (x158 (= x80 x13)) (x145 (= x60 x80)) (x96 (= x93 x59)) (x4 (= x83 x106)) (x42 (= x83 x93)) (x10 (= x106 x15)) (x5 (= x59 x128)) (x23 (= x15 x97)) (x17 (= x15 x137)) (x33 (= x59 x104)) (x44 (= x80 x128)) (x103 (= x155 x15)) (x62 (= x138 x83)) (x132 (= x83 x137)) (x110 (= x54 x83)) (x27 (= x79 x78)) (x117 (= x60 x83)) (x76 (= x37 x80)) (x2 (= x124 x59))) (and (and (and (and (and (and (and (or (or (or x118 (or x5 x55)) x6) x112) (or (or (or x43 (or x2 x55)) x147) x134)) (and (and (or (or x152 (or (or x88 x75) x119)) x89) (or (or x114 (or (or x75 x11) x122)) x23)) (and (and (or x51 (or x145 (or (or x47 x81) x130))) (or (or (or (or x47 x44) x48) x148) x34)) (and (or (or x27 (or x50 (or x156 x94))) x111) (or (or x131 (or (or x70 x94) x38)) x21))))) (and (or (or (or x30 (or x135 x36)) x117) x120) (or (or x154 (or (or x12 x135) x110)) x3))) (and (and (or (or x129 (or x64 (or x62 x12))) x140) (or (or (or (or x36 x62) x57) x19) x58)) (and (and (and (or (or x126 (or (or x85 x88) x103)) x127) (or (or (or (or x85 x11) x123) x56) x41)) (and (and (or (or (or x143 (or x70 x69)) x100) x115) (or (or (or x52 (or x156 x69)) x141) x29)) (and (or x98 (or x76 (or x150 (or x125 x44)))) (or x153 (or (or x92 (or x125 x81)) x73))))) (and (or x53 (or x72 (or (or x5 x66) x9))) (or x74 (or (or (or x66 x2) x142) x82)))))) (and (and (or (or (or x144 (or x64 x30)) x49) x132) (or (or x101 (or (or x57 x110) x144)) x77)) (and (and (and (and (or (or x158 (or (or x130 x150) x146)) x68) (or (or (or x146 (or x48 x92)) x63) x99)) (and (or x35 (or (or (or x38 x52) x159) x149)) (or (or (or (or x143 x50) x159) x133) x102))) (and (or x25 (or (or (or x103 x122) x14) x71)) (or (or x113 (or (or x119 x123) x14)) x17))) (and (or (or (or (or x43 x9) x139) x90) x87) (or (or (or x139 (or x118 x142)) x7) x22))))) (and (and (or (or (or x49 (or x19 x154)) x24) x45) (or x42 (or x24 (or (or x117 x129) x101)))) (and (and (and (or x8 (or x136 (or x113 (or x126 x114)))) (or (or (or x71 (or x152 x56)) x136) x105)) (and (and (or x86 (or x116 (or (or x148 x73) x158))) (or (or x116 (or x63 (or x76 x145))) x107)) (and (or x157 (or x67 (or x149 (or x27 x100)))) (or x18 (or (or x133 (or x131 x141)) x67))))) (and (or (or (or x90 (or x82 x6)) x16) x33) (or x96 (or x16 (or x7 (or x147 x72)))))))) (and (and (or x4 (or (or (or x140 x120) x77) x45)) (or x4 (or x42 (or (or x3 x58) x132)))) (and (and (or (or (or (or x112 x74) x87) x96) x28) (or x28 (or x33 (or (or x134 x53) x22)))) (and (and (or x10 (or (or (or x41 x89) x25) x8)) (or (or (or (or x127 x23) x17) x105) x10)) (and (and (or x121 (or (or (or x21 x29) x102) x157)) (or x121 (or (or x35 (or x115 x111)) x18))) (and (or (or (or (or x98 x51) x99) x86) x26) (or (or x107 (or x68 (or x34 x153))) x26))))))))))
(assert (let ((x128 (x151 x80 x15)) (x47 (x151 x15 x80)) (x155 (= x83 (x151 x83 x83))) (x97 (x151 x79 x59)) (x138 (x151 x83 x80)) (x95 (x151 x80 x83)) (x46 (= x80 (x151 x80 x80))) (x65 (x151 x79 x15)) (x55 (x151 x80 x59)) (x94 (= x79 (x151 x79 x79))) (x156 (x151 x15 x59)) (x37 (x151 x83 x15)) (x75 (x151 x59 x80)) (x54 (= x15 (x151 x15 x15))) (x69 (x151 x83 x79)) (x124 (x151 x79 x80)) (x135 (x151 x59 x15)) (x1 (x151 x15 x83)) (x81 (x151 x83 x59)) (x44 (x151 x79 x83)) (x60 (x151 x15 x79)) (x125 (x151 x59 x83)) (x78 (x151 x59 x79)) (x108 (x151 x80 x79)) (x70 (= (x151 x59 x59) x59))) (or (or (or (or (and (= x37 x83) (= x1 x83)) (or (and (= x83 x69) (= x44 x83)) (and (= x138 x83) (= x83 x95)))) (and (= x125 x83) (= x83 x81))) (and x155 x155)) (or (or (and (= x59 x81) (= x125 x59)) (or (or (or (and (= x75 x59) (= x59 x55)) (and (= x59 x97) (= x59 x78))) (and (= x156 x59) (= x59 x135))) (and x70 x70))) (or (or (and (= x1 x15) (= x15 x37)) (or (or (or (and (= x15 x60) (= x15 x65)) (and (= x15 x47) (= x15 x128))) (and x54 x54)) (and (= x15 x156) (= x15 x135)))) (or (or (or (or (or (and (= x79 x124) (= x108 x79)) (and x94 x94)) (and (= x65 x79) (= x60 x79))) (and (= x78 x79) (= x97 x79))) (and (= x79 x44) (= x79 x69))) (or (and (= x138 x80) (= x80 x95)) (or (and (= x80 x75) (= x80 x55)) (or (or (and x46 x46) (and (= x80 x124) (= x80 x108))) (and (= x80 x47) (= x80 x128)))))))))))
(assert (let ((x55 (x151 x15 x15)) (x97 (x151 x79 x15)) (x156 (x151 x83 x15)) (x65 (x151 x79 x80)) (x70 (x151 x79 x59)) (x1 (x151 x80 x83)) (x75 (x151 x80 x15)) (x44 (x151 x15 x59)) (x138 (x151 x59 x59)) (x155 (x151 x83 x83)) (x69 (x151 x80 x59)) (x37 (x151 x79 x83)) (x46 (x151 x59 x79)) (x124 (x151 x15 x79)) (x125 (x151 x59 x83)) (x95 (x151 x83 x59)) (x128 (x151 x15 x80)) (x54 (x151 x59 x80)) (x135 (x151 x59 x15)) (x60 (x151 x83 x79)) (x78 (x151 x83 x80)) (x81 (x151 x15 x83)) (x47 (x151 x80 x80)) (x108 (x151 x80 x79)) (x94 (x151 x79 x79))) (or (or (and (and (not (= x59 (x151 x138 x138))) (and (and (not (= (x151 x70 x70) x79)) (not (= (x151 x69 x69) x80))) (not (= (x151 x44 x44) x15)))) (not (= (x151 x95 x95) x83))) (or (and (not (= x83 (x151 x156 x156))) (and (not (= (x151 x135 x135) x59)) (and (not (= (x151 x55 x55) x15)) (and (not (= (x151 x75 x75) x80)) (not (= (x151 x97 x97) x79)))))) (or (and (and (and (not (= (x151 x124 x124) x15)) (and (not (= x79 (x151 x94 x94))) (not (= x80 (x151 x108 x108))))) (not (= (x151 x46 x46) x59))) (not (= (x151 x60 x60) x83))) (and (not (= x83 (x151 x78 x78))) (and (not (= x59 (x151 x54 x54))) (and (and (not (= x79 (x151 x65 x65))) (not (= x80 (x151 x47 x47)))) (not (= x15 (x151 x128 x128))))))))) (and (and (and (not (= x15 (x151 x81 x81))) (and (not (= x80 (x151 x1 x1))) (not (= x79 (x151 x37 x37))))) (not (= (x151 x125 x125) x59))) (not (= (x151 x155 x155) x83))))))
(assert (and (and (and (not (= x15 (x151 x15 x15))) (and (not (= (x151 x79 x79) x79)) (not (= x80 (x151 x80 x80))))) (not (= (x151 x59 x59) x59))) (not (= x83 (x151 x83 x83)))))
(assert (let ((x75 (x151 x80 x15)) (x65 (x151 x79 x80)) (x60 (x151 x83 x79)) (x125 (x151 x59 x83)) (x54 (x151 x59 x80)) (x124 (x151 x15 x79)) (x37 (x151 x79 x83)) (x94 (x151 x79 x79)) (x55 (x151 x15 x15)) (x135 (x151 x59 x15)) (x138 (x151 x59 x59)) (x1 (x151 x80 x83)) (x69 (x151 x80 x59)) (x70 (x151 x79 x59)) (x155 (x151 x83 x83)) (x128 (x151 x15 x80)) (x97 (x151 x79 x15)) (x47 (x151 x80 x80)) (x46 (x151 x59 x79)) (x108 (x151 x80 x79)) (x81 (x151 x15 x83)) (x156 (x151 x83 x15)) (x95 (x151 x83 x59)) (x78 (x151 x83 x80)) (x44 (x151 x15 x59))) (and (and (and (and (and (and (and (and (not (= x69 x138)) (and (and (not (= x95 x70)) (and (not (= x138 x70)) (and (not (= x69 x70)) (not (= x70 x44))))) (not (= x44 x69)))) (not (= x69 x95))) (not (= x138 x44))) (not (= x44 x95))) (not (= x138 x95))) (and (and (not (= x156 x135)) (and (not (= x55 x156)) (and (and (not (= x75 x156)) (and (and (and (not (= x156 x97)) (and (not (= x135 x97)) (and (not (= x75 x97)) (not (= x55 x97))))) (not (= x55 x75))) (not (= x135 x75)))) (not (= x55 x135))))) (and (and (not (= x54 x78)) (and (and (not (= x54 x128)) (and (and (and (and (not (= x65 x78)) (and (and (not (= x128 x65)) (not (= x47 x65))) (not (= x65 x54)))) (not (= x47 x128))) (not (= x47 x54))) (not (= x78 x47)))) (not (= x78 x128)))) (and (not (= x60 x46)) (and (not (= x124 x60)) (and (not (= x46 x124)) (and (and (and (and (and (not (= x94 x46)) (and (not (= x94 x108)) (not (= x124 x94)))) (not (= x94 x60))) (not (= x108 x124))) (not (= x108 x46))) (not (= x108 x60))))))))) (and (and (and (and (and (and (not (= x81 x1)) (and (not (= x37 x155)) (and (not (= x37 x125)) (and (not (= x37 x1)) (not (= x81 x37)))))) (not (= x125 x1))) (not (= x155 x1))) (not (= x125 x81))) (not (= x81 x155))) (not (= x125 x155)))) (and (and (not (= x95 x155)) (and (not (= x156 x155)) (and (not (= x95 x156)) (and (not (= x155 x78)) (and (not (= x95 x78)) (and (and (and (and (not (= x60 x156)) (not (= x78 x60))) (not (= x60 x95))) (not (= x60 x155))) (not (= x156 x78)))))))) (and (and (and (not (= x81 x44)) (and (not (= x81 x55)) (and (and (and (not (= x128 x44)) (and (not (= x128 x55)) (and (not (= x81 x124)) (and (not (= x44 x124)) (and (not (= x124 x128)) (not (= x124 x55))))))) (not (= x81 x128))) (not (= x44 x55))))) (and (and (not (= x70 x37)) (and (and (and (not (= x37 x65)) (and (and (and (not (= x94 x37)) (and (and (not (= x97 x94)) (not (= x65 x94))) (not (= x94 x70)))) (not (= x97 x65))) (not (= x65 x70)))) (not (= x97 x70))) (not (= x97 x37)))) (and (and (not (= x75 x1)) (and (not (= x69 x75)) (and (and (not (= x69 x47)) (and (and (and (and (not (= x108 x75)) (not (= x47 x108))) (not (= x108 x69))) (not (= x108 x1))) (not (= x47 x75)))) (not (= x47 x1))))) (not (= x1 x69))))) (and (not (= x125 x138)) (and (not (= x135 x125)) (and (and (not (= x54 x125)) (and (and (not (= x135 x54)) (and (and (not (= x138 x46)) (and (not (= x135 x46)) (not (= x46 x54)))) (not (= x46 x125)))) (not (= x54 x138)))) (not (= x135 x138))))))))))
(assert (and (or (= x83 (x151 x83 (x151 x83 x83))) (or (or (= (x151 x83 (x151 x83 x15)) x15) (or (= x80 (x151 x83 (x151 x83 x80))) (= x79 (x151 x83 (x151 x83 x79))))) (= (x151 x83 (x151 x83 x59)) x59))) (and (and (or (= x83 (x151 x15 (x151 x15 x83))) (or (or (= x15 (x151 x15 (x151 x15 x15))) (or (= x79 (x151 x15 (x151 x15 x79))) (= x80 (x151 x15 (x151 x15 x80))))) (= (x151 x15 (x151 x15 x59)) x59))) (and (or (= x83 (x151 x80 (x151 x80 x83))) (or (or (= (x151 x80 (x151 x80 x15)) x15) (or (= x80 (x151 x80 (x151 x80 x80))) (= (x151 x80 (x151 x80 x79)) x79))) (= (x151 x80 (x151 x80 x59)) x59))) (or (= (x151 x79 (x151 x79 x83)) x83) (or (or (or (= x79 (x151 x79 (x151 x79 x79))) (= x80 (x151 x79 (x151 x79 x80)))) (= x15 (x151 x79 (x151 x79 x15)))) (= (x151 x79 (x151 x79 x59)) x59))))) (or (= x83 (x151 x59 (x151 x59 x83))) (or (or (= (x151 x59 (x151 x59 x15)) x15) (or (= x79 (x151 x59 (x151 x59 x79))) (= x80 (x151 x59 (x151 x59 x80))))) (= x59 (x151 x59 (x151 x59 x59))))))))
(assert (and (and (and (and (and (not (= x59 x80)) (and (not (= x80 x15)) (and (and (and (not (= x79 x15)) (not (= x80 x79))) (not (= x59 x79))) (not (= x79 x83))))) (not (= x80 x83))) (not (= x15 x59))) (not (= x83 x15))) (not (= x83 x59))))
(assert (and (and (and (and (or (or (or (or (= x80 (x151 x79 x80)) (= x79 (x151 x79 x79))) (= (x151 x79 x15) x15)) (= (x151 x79 x59) x59)) (= x83 (x151 x79 x83))) (or (or (= x59 (x151 x80 x59)) (or (or (= (x151 x80 x80) x80) (= (x151 x80 x79) x79)) (= x15 (x151 x80 x15)))) (= (x151 x80 x83) x83))) (or (= x83 (x151 x15 x83)) (or (or (or (= (x151 x15 x80) x80) (= x79 (x151 x15 x79))) (= (x151 x15 x15) x15)) (= (x151 x15 x59) x59)))) (or (= x83 (x151 x59 x83)) (or (= x59 (x151 x59 x59)) (or (= x15 (x151 x59 x15)) (or (= (x151 x59 x79) x79) (= x80 (x151 x59 x80))))))) (or (or (or (or (= (x151 x83 x80) x80) (= (x151 x83 x79) x79)) (= (x151 x83 x15) x15)) (= (x151 x83 x59) x59)) (= x83 (x151 x83 x83)))))
(assert (let ((x46 (x151 x59 x59)) (x60 (x151 x83 x83)) (x124 (x151 x15 x15)) (x108 (x151 x80 x80)) (x94 (x151 x79 x79))) (or (and (not (= x83 x60)) (and (not (= x46 x83)) (and (and (not (= x94 x83)) (not (= x83 x108))) (not (= x83 x124))))) (or (or (and (not (= x15 x60)) (and (and (and (not (= x15 x94)) (not (= x108 x15))) (not (= x15 x124))) (not (= x15 x46)))) (or (and (not (= x60 x80)) (and (and (not (= x124 x80)) (and (not (= x108 x80)) (not (= x80 x94)))) (not (= x46 x80)))) (and (and (and (not (= x79 x124)) (and (not (= x79 x94)) (not (= x108 x79)))) (not (= x46 x79))) (not (= x79 x60))))) (and (not (= x59 x60)) (and (not (= x46 x59)) (and (not (= x59 x124)) (and (not (= x94 x59)) (not (= x59 x108))))))))))
(assert (let ((x75 (x151 x15 x80)) (x44 (x151 x59 x15)) (x128 (x151 x80 x15)) (x69 (x151 x59 x80)) (x95 (x151 x59 x83)) (x60 (x151 x79 x83)) (x78 (x151 x80 x83)) (x55 (x151 x15 x15)) (x37 (x151 x83 x79)) (x97 (x151 x15 x79)) (x46 (x151 x79 x59)) (x135 (x151 x15 x59)) (x138 (x151 x59 x59)) (x1 (x151 x83 x80)) (x70 (x151 x59 x79)) (x125 (x151 x83 x59)) (x156 (x151 x15 x83)) (x94 (x151 x79 x79)) (x65 (x151 x80 x79)) (x54 (x151 x80 x59)) (x81 (x151 x83 x15)) (x124 (x151 x79 x15)) (x47 (x151 x80 x80)) (x108 (x151 x79 x80)) (x155 (x151 x83 x83))) (and (and (and (and (and (and (and (and (or (or (or (= x94 x15) (or (= x94 x80) (= x94 x79))) (= x59 x94)) (= x94 x83)) (or (= x108 x83) (or (= x59 x108) (or (= x108 x15) (or (= x108 x79) (= x80 x108)))))) (or (or (or (= x124 x15) (or (= x124 x80) (= x79 x124))) (= x59 x124)) (= x83 x124))) (or (or (or (= x15 x46) (or (= x46 x79) (= x46 x80))) (= x46 x59)) (= x46 x83))) (or (= x60 x83) (or (or (= x15 x60) (or (= x80 x60) (= x79 x60))) (= x60 x59)))) (and (or (= x78 x83) (or (= x59 x78) (or (or (= x78 x80) (= x78 x79)) (= x15 x78)))) (and (and (or (or (= x59 x128) (or (= x15 x128) (or (= x128 x80) (= x79 x128)))) (= x83 x128)) (and (or (= x83 x47) (or (= x59 x47) (or (= x15 x47) (or (= x47 x79) (= x47 x80))))) (or (= x65 x83) (or (= x65 x59) (or (= x65 x15) (or (= x65 x79) (= x80 x65))))))) (or (or (= x59 x54) (or (= x15 x54) (or (= x80 x54) (= x79 x54)))) (= x54 x83))))) (and (or (or (or (= x15 x156) (or (= x79 x156) (= x156 x80))) (= x156 x59)) (= x83 x156)) (and (or (= x135 x83) (or (= x59 x135) (or (= x135 x15) (or (= x80 x135) (= x79 x135))))) (and (or (or (= x59 x55) (or (or (= x55 x80) (= x79 x55)) (= x55 x15))) (= x55 x83)) (and (or (or (or (or (= x75 x80) (= x75 x79)) (= x15 x75)) (= x75 x59)) (= x83 x75)) (or (= x83 x97) (or (or (= x97 x15) (or (= x80 x97) (= x97 x79))) (= x59 x97)))))))) (and (and (and (and (or (or (= x59 x69) (or (= x15 x69) (or (= x69 x79) (= x80 x69)))) (= x69 x83)) (or (or (= x59 x70) (or (= x70 x15) (or (= x70 x79) (= x70 x80)))) (= x83 x70))) (or (= x44 x83) (or (= x44 x59) (or (or (= x44 x80) (= x79 x44)) (= x15 x44))))) (or (= x138 x83) (or (or (or (= x138 x80) (= x138 x79)) (= x15 x138)) (= x138 x59)))) (or (= x95 x83) (or (or (= x15 x95) (or (= x95 x79) (= x80 x95))) (= x59 x95))))) (and (and (and (or (or (or (= x15 x81) (or (= x80 x81) (= x79 x81))) (= x59 x81)) (= x83 x81)) (and (or (or (= x59 x37) (or (= x37 x15) (or (= x37 x79) (= x37 x80)))) (= x83 x37)) (or (or (= x59 x1) (or (or (= x1 x79) (= x80 x1)) (= x15 x1))) (= x83 x1)))) (or (= x125 x83) (or (= x59 x125) (or (= x125 x15) (or (= x80 x125) (= x79 x125)))))) (or (= x155 x83) (or (or (or (= x80 x155) (= x155 x79)) (= x155 x15)) (= x59 x155)))))))
(assert (and (= (x151 x79 x59) x83) (and (= (x151 x79 x83) x15) (and (= (x151 x59 x59) x79) (= (x151 x83 x59) x80)))))
(check-sat)
(exit)
